nK = 1659;
nT = 8;
nI = 21;
L = 35;
TT = 359;
np = 1;
nc = 3;
b = [70, 34, 60, 24, 34, 26, 44, 59, 70, 59, 28, 46, 30, 22, 42, 62, 54, 64, 56, 69, 36];
d = [123, 69, 140, 131, 54, 44, 149, 149, 110, 145, 123, 132, 69, 146, 138, 118, 100, 114, 140, 127, 131];
m = [1.2, 2.5, 1.8, 1.6, 2.3, 2.5, 1, 1.1, 2.5, 1.8, 2.2, 2.5, 2.1, 1.2, 1.2, 1.9, 2.5, 1.1, 1.1, 1.7, 2.4];
pt = [0.26, 0.3, 0.32, 0.27, 0.31, 0.21, 0.32, 0.28];
st = [13.52, 16.5, 18.24, 13.23, 14.26, 10.71, 16, 16.24];
arc = {<1, 0, 1, 1, 0, 0, 0, [1, 1, 1, 1, 1, 1, 1, 1]>, <2, 1, 2, 1, 0, 0, 0, [1, 1, 1, 1, 1, 1, 1, 1]>, <3, 2, 3, 1, 0, 0, 0, [1, 1, 1, 1, 1, 1, 1, 1]>, <4, 3, 4, 1, 0, 0, 0, [1, 1, 1, 1, 1, 1, 1, 1]>, <5, 4, 5, 1, 0, 0, 0, [1, 1, 1, 1, 1, 1, 1, 1]>, <6, 5, 6, 1, 0, 0, 0, [1, 1, 1, 1, 1, 1, 1, 1]>, <7, 6, 7, 1, 0, 0, 0, [1, 1, 1, 1, 1, 1, 1, 1]>, <8, 7, 8, 1, 0, 0, 0, [1, 1, 1, 1, 1, 1, 1, 1]>, <9, 8, 9, 1, 0, 0, 0, [1, 1, 1, 1, 1, 1, 1, 1]>, <10, 9, 10, 1, 0, 0, 0, [1, 1, 1, 1, 1, 1, 1, 1]>, <11, 10, 11, 1, 0, 0, 0, [1, 1, 1, 1, 1, 1, 1, 1]>, <12, 11, 12, 1, 0, 0, 0, [1, 1, 1, 1, 1, 1, 1, 1]>, <13, 12, 13, 1, 0, 0, 0, [1, 1, 1, 1, 1, 1, 1, 1]>, <14, 13, 14, 1, 0, 0, 0, [1, 1, 1, 1, 1, 1, 1, 1]>, <15, 14, 15, 1, 0, 0, 0, [1, 1, 1, 1, 1, 1, 1, 1]>, <16, 15, 16, 1, 0, 0, 0, [1, 1, 1, 1, 1, 1, 1, 1]>, <17, 16, 17, 1, 0, 0, 0, [1, 1, 1, 1, 1, 1, 1, 1]>, <18, 17, 18, 1, 0, 0, 0, [1, 1, 1, 1, 1, 1, 1, 1]>, <19, 18, 19, 1, 0, 0, 0, [1, 1, 1, 1, 1, 1, 1, 1]>, <20, 19, 20, 1, 0, 0, 0, [1, 1, 1, 1, 1, 1, 1, 1]>, <21, 20, 21, 1, 0, 0, 0, [1, 1, 1, 1, 1, 1, 1, 1]>, <22, 21, 22, 1, 0, 0, 0, [1, 1, 1, 1, 1, 1, 1, 1]>, <23, 22, 23, 1, 0, 0, 0, [1, 1, 1, 1, 1, 1, 1, 1]>, <24, 23, 24, 1, 0, 0, 0, [1, 1, 1, 1, 1, 1, 1, 1]>, <25, 24, 25, 1, 0, 0, 0, [1, 1, 1, 1, 1, 1, 1, 1]>, <26, 25, 26, 1, 0, 0, 0, [1, 1, 1, 1, 1, 1, 1, 1]>, <27, 26, 27, 1, 0, 0, 0, [1, 1, 1, 1, 1, 1, 1, 1]>, <28, 27, 28, 1, 0, 0, 0, [1, 1, 1, 1, 1, 1, 1, 1]>, <29, 28, 29, 1, 0, 0, 0, [1, 1, 1, 1, 1, 1, 1, 1]>, <30, 29, 30, 1, 0, 0, 0, [1, 1, 1, 1, 1, 1, 1, 1]>, <31, 30, 31, 1, 0, 0, 0, [1, 1, 1, 1, 1, 1, 1, 1]>, <32, 31, 32, 1, 0, 0, 0, [1, 1, 1, 1, 1, 1, 1, 1]>, <33, 32, 33, 1, 0, 0, 0, [1, 1, 1, 1, 1, 1, 1, 1]>, <34, 33, 34, 1, 0, 0, 0, [1, 1, 1, 1, 1, 1, 1, 1]>, <35, 34, 35, 1, 0, 0, 0, [1, 1, 1, 1, 1, 1, 1, 1]>, <36, 5, 16, 11, 1, 0, 0, [1, 1, 0, 0, 0, 0, 1, 1]>, <37, 6, 17, 11, 1, 0, 0, [1, 1, 0, 0, 0, 0, 1, 1]>, <38, 14, 25, 11, 1, 0, 0, [1, 1, 0, 0, 0, 0, 1, 1]>, <39, 15, 26, 11, 1, 0, 0, [1, 1, 0, 0, 0, 0, 1, 1]>, <40, 20, 31, 11, 1, 0, 0, [1, 1, 0, 0, 0, 0, 1, 1]>, <41, 21, 32, 11, 1, 0, 0, [1, 1, 0, 0, 0, 0, 1, 1]>, <42, 22, 33, 11, 1, 0, 0, [1, 1, 0, 0, 0, 0, 1, 1]>, <43, 23, 34, 11, 1, 0, 0, [1, 1, 0, 0, 0, 0, 1, 1]>, <44, 24, 35, 11, 1, 0, 0, [1, 1, 0, 0, 0, 0, 1, 1]>, <45, 3, 17, 14, 2, 1, 0, [0, 0, 0, 0, 1, 1, 1, 1]>, <46, 4, 18, 14, 2, 1, 0, [0, 0, 0, 0, 1, 1, 1, 1]>, <47, 5, 19, 14, 2, 1, 0, [0, 0, 0, 0, 1, 1, 1, 1]>, <48, 6, 20, 14, 2, 1, 0, [0, 0, 0, 0, 1, 1, 1, 1]>, <49, 12, 26, 14, 2, 1, 0, [0, 0, 0, 0, 1, 1, 1, 1]>, <50, 13, 27, 14, 2, 1, 0, [0, 0, 0, 0, 1, 1, 1, 1]>, <51, 14, 28, 14, 2, 1, 0, [0, 0, 0, 0, 1, 1, 1, 1]>, <52, 15, 29, 14, 2, 1, 0, [0, 0, 0, 0, 1, 1, 1, 1]>, <53, 17, 31, 14, 2, 1, 0, [0, 0, 0, 0, 1, 1, 1, 1]>, <54, 18, 32, 14, 2, 1, 0, [0, 0, 0, 0, 1, 1, 1, 1]>, <55, 19, 33, 14, 2, 1, 0, [0, 0, 0, 0, 1, 1, 1, 1]>, <56, 20, 34, 14, 2, 1, 0, [0, 0, 0, 0, 1, 1, 1, 1]>, <57, 21, 35, 14, 2, 1, 0, [0, 0, 0, 0, 1, 1, 1, 1]>, <58, 5, 14, 9, 3, 0, 1, [1, 1, 1, 0, 0, 0, 0, 1]>, <59, 6, 15, 9, 3, 0, 1, [1, 1, 1, 0, 0, 0, 0, 1]>, <60, 14, 23, 9, 3, 0, 1, [1, 1, 1, 0, 0, 0, 0, 1]>, <61, 15, 24, 9, 3, 0, 1, [1, 1, 1, 0, 0, 0, 0, 1]>, <62, 22, 31, 9, 3, 0, 1, [1, 1, 1, 0, 0, 0, 0, 1]>, <63, 23, 32, 9, 3, 0, 1, [1, 1, 1, 0, 0, 0, 0, 1]>, <64, 24, 33, 9, 3, 0, 1, [1, 1, 1, 0, 0, 0, 0, 1]>, <65, 4, 17, 13, 4, 0, 1, [0, 0, 0, 0, 1, 1, 1, 1]>, <66, 5, 18, 13, 4, 0, 1, [0, 0, 0, 0, 1, 1, 1, 1]>, <67, 6, 19, 13, 4, 0, 1, [0, 0, 0, 0, 1, 1, 1, 1]>, <68, 13, 26, 13, 4, 0, 1, [0, 0, 0, 0, 1, 1, 1, 1]>, <69, 14, 27, 13, 4, 0, 1, [0, 0, 0, 0, 1, 1, 1, 1]>, <70, 15, 28, 13, 4, 0, 1, [0, 0, 0, 0, 1, 1, 1, 1]>, <71, 18, 31, 13, 4, 0, 1, [0, 0, 0, 0, 1, 1, 1, 1]>, <72, 19, 32, 13, 4, 0, 1, [0, 0, 0, 0, 1, 1, 1, 1]>, <73, 20, 33, 13, 4, 0, 1, [0, 0, 0, 0, 1, 1, 1, 1]>, <74, 21, 34, 13, 4, 0, 1, [0, 0, 0, 0, 1, 1, 1, 1]>, <75, 22, 35, 13, 4, 0, 1, [0, 0, 0, 0, 1, 1, 1, 1]>, <76, 5, 16, 11, 5, 0, 1, [0, 0, 1, 1, 1, 1, 0, 0]>, <77, 6, 17, 11, 5, 0, 1, [0, 0, 1, 1, 1, 1, 0, 0]>, <78, 14, 25, 11, 5, 0, 1, [0, 0, 1, 1, 1, 1, 0, 0]>, <79, 15, 26, 11, 5, 0, 1, [0, 0, 1, 1, 1, 1, 0, 0]>, <80, 20, 31, 11, 5, 0, 1, [0, 0, 1, 1, 1, 1, 0, 0]>, <81, 21, 32, 11, 5, 0, 1, [0, 0, 1, 1, 1, 1, 0, 0]>, <82, 22, 33, 11, 5, 0, 1, [0, 0, 1, 1, 1, 1, 0, 0]>, <83, 23, 34, 11, 5, 0, 1, [0, 0, 1, 1, 1, 1, 0, 0]>, <84, 24, 35, 11, 5, 0, 1, [0, 0, 1, 1, 1, 1, 0, 0]>, <85, 3, 17, 14, 6, 0, 0, [0, 1, 1, 1, 1, 0, 0, 0]>, <86, 4, 18, 14, 6, 0, 0, [0, 1, 1, 1, 1, 0, 0, 0]>, <87, 5, 19, 14, 6, 0, 0, [0, 1, 1, 1, 1, 0, 0, 0]>, <88, 6, 20, 14, 6, 0, 0, [0, 1, 1, 1, 1, 0, 0, 0]>, <89, 12, 26, 14, 6, 0, 0, [0, 1, 1, 1, 1, 0, 0, 0]>, <90, 13, 27, 14, 6, 0, 0, [0, 1, 1, 1, 1, 0, 0, 0]>, <91, 14, 28, 14, 6, 0, 0, [0, 1, 1, 1, 1, 0, 0, 0]>, <92, 15, 29, 14, 6, 0, 0, [0, 1, 1, 1, 1, 0, 0, 0]>, <93, 17, 31, 14, 6, 0, 0, [0, 1, 1, 1, 1, 0, 0, 0]>, <94, 18, 32, 14, 6, 0, 0, [0, 1, 1, 1, 1, 0, 0, 0]>, <95, 19, 33, 14, 6, 0, 0, [0, 1, 1, 1, 1, 0, 0, 0]>, <96, 20, 34, 14, 6, 0, 0, [0, 1, 1, 1, 1, 0, 0, 0]>, <97, 21, 35, 14, 6, 0, 0, [0, 1, 1, 1, 1, 0, 0, 0]>, <98, 5, 17, 12, 7, 0, 0, [1, 1, 1, 1, 0, 0, 0, 0]>, <99, 6, 18, 12, 7, 0, 0, [1, 1, 1, 1, 0, 0, 0, 0]>, <100, 14, 26, 12, 7, 0, 0, [1, 1, 1, 1, 0, 0, 0, 0]>, <101, 15, 27, 12, 7, 0, 0, [1, 1, 1, 1, 0, 0, 0, 0]>, <102, 19, 31, 12, 7, 0, 0, [1, 1, 1, 1, 0, 0, 0, 0]>, <103, 20, 32, 12, 7, 0, 0, [1, 1, 1, 1, 0, 0, 0, 0]>, <104, 21, 33, 12, 7, 0, 0, [1, 1, 1, 1, 0, 0, 0, 0]>, <105, 22, 34, 12, 7, 0, 0, [1, 1, 1, 1, 0, 0, 0, 0]>, <106, 23, 35, 12, 7, 0, 0, [1, 1, 1, 1, 0, 0, 0, 0]>, <107, 5, 15, 10, 8, 0, 0, [1, 1, 0, 0, 0, 0, 1, 1]>, <108, 6, 16, 10, 8, 0, 0, [1, 1, 0, 0, 0, 0, 1, 1]>, <109, 14, 24, 10, 8, 0, 0, [1, 1, 0, 0, 0, 0, 1, 1]>, <110, 15, 25, 10, 8, 0, 0, [1, 1, 0, 0, 0, 0, 1, 1]>, <111, 21, 31, 10, 8, 0, 0, [1, 1, 0, 0, 0, 0, 1, 1]>, <112, 22, 32, 10, 8, 0, 0, [1, 1, 0, 0, 0, 0, 1, 1]>, <113, 23, 33, 10, 8, 0, 0, [1, 1, 0, 0, 0, 0, 1, 1]>, <114, 24, 34, 10, 8, 0, 0, [1, 1, 0, 0, 0, 0, 1, 1]>, <115, 5, 14, 9, 9, 0, 0, [0, 1, 1, 1, 1, 0, 0, 0]>, <116, 6, 15, 9, 9, 0, 0, [0, 1, 1, 1, 1, 0, 0, 0]>, <117, 14, 23, 9, 9, 0, 0, [0, 1, 1, 1, 1, 0, 0, 0]>, <118, 15, 24, 9, 9, 0, 0, [0, 1, 1, 1, 1, 0, 0, 0]>, <119, 22, 31, 9, 9, 0, 0, [0, 1, 1, 1, 1, 0, 0, 0]>, <120, 23, 32, 9, 9, 0, 0, [0, 1, 1, 1, 1, 0, 0, 0]>, <121, 24, 33, 9, 9, 0, 0, [0, 1, 1, 1, 1, 0, 0, 0]>, <122, 4, 17, 13, 10, 0, 1, [0, 0, 0, 1, 1, 1, 1, 0]>, <123, 5, 18, 13, 10, 0, 1, [0, 0, 0, 1, 1, 1, 1, 0]>, <124, 6, 19, 13, 10, 0, 1, [0, 0, 0, 1, 1, 1, 1, 0]>, <125, 13, 26, 13, 10, 0, 1, [0, 0, 0, 1, 1, 1, 1, 0]>, <126, 14, 27, 13, 10, 0, 1, [0, 0, 0, 1, 1, 1, 1, 0]>, <127, 15, 28, 13, 10, 0, 1, [0, 0, 0, 1, 1, 1, 1, 0]>, <128, 18, 31, 13, 10, 0, 1, [0, 0, 0, 1, 1, 1, 1, 0]>, <129, 19, 32, 13, 10, 0, 1, [0, 0, 0, 1, 1, 1, 1, 0]>, <130, 20, 33, 13, 10, 0, 1, [0, 0, 0, 1, 1, 1, 1, 0]>, <131, 21, 34, 13, 10, 0, 1, [0, 0, 0, 1, 1, 1, 1, 0]>, <132, 22, 35, 13, 10, 0, 1, [0, 0, 0, 1, 1, 1, 1, 0]>, <133, 2, 17, 15, 11, 0, 0, [1, 1, 1, 1, 0, 0, 0, 0]>, <134, 3, 18, 15, 11, 0, 0, [1, 1, 1, 1, 0, 0, 0, 0]>, <135, 4, 19, 15, 11, 0, 0, [1, 1, 1, 1, 0, 0, 0, 0]>, <136, 5, 20, 15, 11, 0, 0, [1, 1, 1, 1, 0, 0, 0, 0]>, <137, 6, 21, 15, 11, 0, 0, [1, 1, 1, 1, 0, 0, 0, 0]>, <138, 11, 26, 15, 11, 0, 0, [1, 1, 1, 1, 0, 0, 0, 0]>, <139, 12, 27, 15, 11, 0, 0, [1, 1, 1, 1, 0, 0, 0, 0]>, <140, 13, 28, 15, 11, 0, 0, [1, 1, 1, 1, 0, 0, 0, 0]>, <141, 14, 29, 15, 11, 0, 0, [1, 1, 1, 1, 0, 0, 0, 0]>, <142, 15, 30, 15, 11, 0, 0, [1, 1, 1, 1, 0, 0, 0, 0]>, <143, 16, 31, 15, 11, 0, 0, [1, 1, 1, 1, 0, 0, 0, 0]>, <144, 17, 32, 15, 11, 0, 0, [1, 1, 1, 1, 0, 0, 0, 0]>, <145, 18, 33, 15, 11, 0, 0, [1, 1, 1, 1, 0, 0, 0, 0]>, <146, 19, 34, 15, 11, 0, 0, [1, 1, 1, 1, 0, 0, 0, 0]>, <147, 20, 35, 15, 11, 0, 0, [1, 1, 1, 1, 0, 0, 0, 0]>, <148, 4, 17, 13, 12, 0, 0, [0, 0, 0, 1, 1, 1, 1, 0]>, <149, 5, 18, 13, 12, 0, 0, [0, 0, 0, 1, 1, 1, 1, 0]>, <150, 6, 19, 13, 12, 0, 0, [0, 0, 0, 1, 1, 1, 1, 0]>, <151, 13, 26, 13, 12, 0, 0, [0, 0, 0, 1, 1, 1, 1, 0]>, <152, 14, 27, 13, 12, 0, 0, [0, 0, 0, 1, 1, 1, 1, 0]>, <153, 15, 28, 13, 12, 0, 0, [0, 0, 0, 1, 1, 1, 1, 0]>, <154, 18, 31, 13, 12, 0, 0, [0, 0, 0, 1, 1, 1, 1, 0]>, <155, 19, 32, 13, 12, 0, 0, [0, 0, 0, 1, 1, 1, 1, 0]>, <156, 20, 33, 13, 12, 0, 0, [0, 0, 0, 1, 1, 1, 1, 0]>, <157, 21, 34, 13, 12, 0, 0, [0, 0, 0, 1, 1, 1, 1, 0]>, <158, 22, 35, 13, 12, 0, 0, [0, 0, 0, 1, 1, 1, 1, 0]>, <159, 5, 17, 12, 13, 0, 0, [1, 1, 1, 0, 0, 0, 0, 1]>, <160, 6, 18, 12, 13, 0, 0, [1, 1, 1, 0, 0, 0, 0, 1]>, <161, 14, 26, 12, 13, 0, 0, [1, 1, 1, 0, 0, 0, 0, 1]>, <162, 15, 27, 12, 13, 0, 0, [1, 1, 1, 0, 0, 0, 0, 1]>, <163, 19, 31, 12, 13, 0, 0, [1, 1, 1, 0, 0, 0, 0, 1]>, <164, 20, 32, 12, 13, 0, 0, [1, 1, 1, 0, 0, 0, 0, 1]>, <165, 21, 33, 12, 13, 0, 0, [1, 1, 1, 0, 0, 0, 0, 1]>, <166, 22, 34, 12, 13, 0, 0, [1, 1, 1, 0, 0, 0, 0, 1]>, <167, 23, 35, 12, 13, 0, 0, [1, 1, 1, 0, 0, 0, 0, 1]>, <168, 5, 15, 10, 14, 0, 0, [1, 1, 1, 1, 0, 0, 0, 0]>, <169, 6, 16, 10, 14, 0, 0, [1, 1, 1, 1, 0, 0, 0, 0]>, <170, 14, 24, 10, 14, 0, 0, [1, 1, 1, 1, 0, 0, 0, 0]>, <171, 15, 25, 10, 14, 0, 0, [1, 1, 1, 1, 0, 0, 0, 0]>, <172, 21, 31, 10, 14, 0, 0, [1, 1, 1, 1, 0, 0, 0, 0]>, <173, 22, 32, 10, 14, 0, 0, [1, 1, 1, 1, 0, 0, 0, 0]>, <174, 23, 33, 10, 14, 0, 0, [1, 1, 1, 1, 0, 0, 0, 0]>, <175, 24, 34, 10, 14, 0, 0, [1, 1, 1, 1, 0, 0, 0, 0]>, <176, 5, 16, 11, 15, 0, 0, [0, 0, 0, 1, 1, 1, 1, 0]>, <177, 6, 17, 11, 15, 0, 0, [0, 0, 0, 1, 1, 1, 1, 0]>, <178, 14, 25, 11, 15, 0, 0, [0, 0, 0, 1, 1, 1, 1, 0]>, <179, 15, 26, 11, 15, 0, 0, [0, 0, 0, 1, 1, 1, 1, 0]>, <180, 20, 31, 11, 15, 0, 0, [0, 0, 0, 1, 1, 1, 1, 0]>, <181, 21, 32, 11, 15, 0, 0, [0, 0, 0, 1, 1, 1, 1, 0]>, <182, 22, 33, 11, 15, 0, 0, [0, 0, 0, 1, 1, 1, 1, 0]>, <183, 23, 34, 11, 15, 0, 0, [0, 0, 0, 1, 1, 1, 1, 0]>, <184, 24, 35, 11, 15, 0, 0, [0, 0, 0, 1, 1, 1, 1, 0]>, <185, 4, 17, 13, 16, 0, 0, [0, 0, 1, 1, 1, 1, 0, 0]>, <186, 5, 18, 13, 16, 0, 0, [0, 0, 1, 1, 1, 1, 0, 0]>, <187, 6, 19, 13, 16, 0, 0, [0, 0, 1, 1, 1, 1, 0, 0]>, <188, 13, 26, 13, 16, 0, 0, [0, 0, 1, 1, 1, 1, 0, 0]>, <189, 14, 27, 13, 16, 0, 0, [0, 0, 1, 1, 1, 1, 0, 0]>, <190, 15, 28, 13, 16, 0, 0, [0, 0, 1, 1, 1, 1, 0, 0]>, <191, 18, 31, 13, 16, 0, 0, [0, 0, 1, 1, 1, 1, 0, 0]>, <192, 19, 32, 13, 16, 0, 0, [0, 0, 1, 1, 1, 1, 0, 0]>, <193, 20, 33, 13, 16, 0, 0, [0, 0, 1, 1, 1, 1, 0, 0]>, <194, 21, 34, 13, 16, 0, 0, [0, 0, 1, 1, 1, 1, 0, 0]>, <195, 22, 35, 13, 16, 0, 0, [0, 0, 1, 1, 1, 1, 0, 0]>, <196, 5, 14, 9, 17, 0, 0, [0, 0, 0, 1, 1, 1, 1, 0]>, <197, 6, 15, 9, 17, 0, 0, [0, 0, 0, 1, 1, 1, 1, 0]>, <198, 14, 23, 9, 17, 0, 0, [0, 0, 0, 1, 1, 1, 1, 0]>, <199, 15, 24, 9, 17, 0, 0, [0, 0, 0, 1, 1, 1, 1, 0]>, <200, 22, 31, 9, 17, 0, 0, [0, 0, 0, 1, 1, 1, 1, 0]>, <201, 23, 32, 9, 17, 0, 0, [0, 0, 0, 1, 1, 1, 1, 0]>, <202, 24, 33, 9, 17, 0, 0, [0, 0, 0, 1, 1, 1, 1, 0]>, <203, 5, 15, 10, 18, 0, 1, [0, 0, 1, 1, 1, 1, 0, 0]>, <204, 6, 16, 10, 18, 0, 1, [0, 0, 1, 1, 1, 1, 0, 0]>, <205, 14, 24, 10, 18, 0, 1, [0, 0, 1, 1, 1, 1, 0, 0]>, <206, 15, 25, 10, 18, 0, 1, [0, 0, 1, 1, 1, 1, 0, 0]>, <207, 21, 31, 10, 18, 0, 1, [0, 0, 1, 1, 1, 1, 0, 0]>, <208, 22, 32, 10, 18, 0, 1, [0, 0, 1, 1, 1, 1, 0, 0]>, <209, 23, 33, 10, 18, 0, 1, [0, 0, 1, 1, 1, 1, 0, 0]>, <210, 24, 34, 10, 18, 0, 1, [0, 0, 1, 1, 1, 1, 0, 0]>, <211, 5, 16, 11, 19, 0, 1, [1, 0, 0, 0, 0, 1, 1, 1]>, <212, 6, 17, 11, 19, 0, 1, [1, 0, 0, 0, 0, 1, 1, 1]>, <213, 14, 25, 11, 19, 0, 1, [1, 0, 0, 0, 0, 1, 1, 1]>, <214, 15, 26, 11, 19, 0, 1, [1, 0, 0, 0, 0, 1, 1, 1]>, <215, 20, 31, 11, 19, 0, 1, [1, 0, 0, 0, 0, 1, 1, 1]>, <216, 21, 32, 11, 19, 0, 1, [1, 0, 0, 0, 0, 1, 1, 1]>, <217, 22, 33, 11, 19, 0, 1, [1, 0, 0, 0, 0, 1, 1, 1]>, <218, 23, 34, 11, 19, 0, 1, [1, 0, 0, 0, 0, 1, 1, 1]>, <219, 24, 35, 11, 19, 0, 1, [1, 0, 0, 0, 0, 1, 1, 1]>, <220, 4, 17, 13, 20, 1, 0, [1, 1, 1, 0, 0, 0, 0, 1]>, <221, 5, 18, 13, 20, 1, 0, [1, 1, 1, 0, 0, 0, 0, 1]>, <222, 6, 19, 13, 20, 1, 0, [1, 1, 1, 0, 0, 0, 0, 1]>, <223, 13, 26, 13, 20, 1, 0, [1, 1, 1, 0, 0, 0, 0, 1]>, <224, 14, 27, 13, 20, 1, 0, [1, 1, 1, 0, 0, 0, 0, 1]>, <225, 15, 28, 13, 20, 1, 0, [1, 1, 1, 0, 0, 0, 0, 1]>, <226, 18, 31, 13, 20, 1, 0, [1, 1, 1, 0, 0, 0, 0, 1]>, <227, 19, 32, 13, 20, 1, 0, [1, 1, 1, 0, 0, 0, 0, 1]>, <228, 20, 33, 13, 20, 1, 0, [1, 1, 1, 0, 0, 0, 0, 1]>, <229, 21, 34, 13, 20, 1, 0, [1, 1, 1, 0, 0, 0, 0, 1]>, <230, 22, 35, 13, 20, 1, 0, [1, 1, 1, 0, 0, 0, 0, 1]>, <231, 5, 16, 11, 21, 0, 1, [0, 0, 1, 1, 1, 1, 0, 0]>, <232, 6, 17, 11, 21, 0, 1, [0, 0, 1, 1, 1, 1, 0, 0]>, <233, 14, 25, 11, 21, 0, 1, [0, 0, 1, 1, 1, 1, 0, 0]>, <234, 15, 26, 11, 21, 0, 1, [0, 0, 1, 1, 1, 1, 0, 0]>, <235, 20, 31, 11, 21, 0, 1, [0, 0, 1, 1, 1, 1, 0, 0]>, <236, 21, 32, 11, 21, 0, 1, [0, 0, 1, 1, 1, 1, 0, 0]>, <237, 22, 33, 11, 21, 0, 1, [0, 0, 1, 1, 1, 1, 0, 0]>, <238, 23, 34, 11, 21, 0, 1, [0, 0, 1, 1, 1, 1, 0, 0]>, <239, 24, 35, 11, 21, 0, 1, [0, 0, 1, 1, 1, 1, 0, 0]>};
